cases/matpower/case5_dc.m
ipopt
DCP
[warn | PowerModels]: the dc line model is not meant to be used bi-directionally when loss1 > 0, be careful interpreting the results as the dc line losses can now be negative. change loss1 to 0 to avoid this warning
[warn | PowerModels]: active generators found at bus 1, updating to bus type from 1 to 2
[warn | PowerModels]: active generators found at bus 5, updating to bus type from 1 to 2
[warn | PowerModels]: active generators found at bus 3, updating to bus type from 1 to 2
[warn | PowerModels]: the voltage setpoint on generator 5 does not match the value at bus 5
[warn | PowerModels]: the voltage setpoint on generator 2 does not match the value at bus 1
[warn | PowerModels]: the to bus voltage setpoint on dc line 1 does not match the value at bus 5
[info | PowerModels]: removing 1 cost terms from generator 4: [4000.0, 0.0]
[info | PowerModels]: removing 1 cost terms from generator 1: [1400.0, 0.0]
[info | PowerModels]: removing 1 cost terms from generator 5: [1000.0, 0.0]
[info | PowerModels]: removing 1 cost terms from generator 2: [1500.0, 0.0]
[info | PowerModels]: removing 1 cost terms from generator 3: [3000.0, 0.0]
[info | PowerModels]: removing 2 cost terms from dcline 1: [4000.0, 0.0]

******************************************************************************
This program contains Ipopt, a library for large-scale nonlinear optimization.
 Ipopt is released as open source code under the Eclipse Public License (EPL).
         For more information visit http://projects.coin-or.org/Ipopt
******************************************************************************

This is Ipopt version 3.13.2, running with linear solver mumps.
NOTE: Other linear solvers might be more efficient (see Ipopt documentation).

Number of nonzeros in equality constraint Jacobian...:       40
Number of nonzeros in inequality constraint Jacobian.:       24
Number of nonzeros in Lagrangian Hessian.............:        0

Total number of variables............................:       18
                     variables with only lower bounds:        0
                variables with lower and upper bounds:       13
                     variables with only upper bounds:        0
Total number of equality constraints.................:       13
Total number of inequality constraints...............:       12
        inequality constraints with only lower bounds:        6
   inequality constraints with lower and upper bounds:        0
        inequality constraints with only upper bounds:        6

iter    objective    inf_pr   inf_du lg(mu)  ||d||  lg(rg) alpha_du alpha_pr  ls
   0  7.0059989e+02 3.99e+00 4.36e+01  -1.0 0.00e+00    -  0.00e+00 0.00e+00   0
   1  9.3990344e+02 3.94e+00 4.34e+01  -1.0 2.57e+00    -  3.99e-03 1.30e-02h  1
   2  8.3715793e+02 3.92e+00 4.33e+01  -1.0 2.00e+01    -  4.31e-03 5.48e-03f  1
   3  9.3146953e+02 3.87e+00 4.16e+01  -1.0 1.26e+01    -  3.32e-01 1.20e-02h  1
   4  6.5745281e+03 1.59e+00 4.05e+01  -1.0 9.56e+00    -  3.21e-02 5.90e-01h  1
   5  6.7333950e+03 1.53e+00 3.86e+01  -1.0 1.73e+00    -  4.14e-02 3.26e-02h  1
   6  7.2545105e+03 1.39e+00 3.57e+01  -1.0 2.96e+00    -  8.15e-02 9.64e-02h  1
   7  7.4977386e+03 1.32e+00 1.75e+01  -1.0 3.55e+00    -  4.17e-01 4.72e-02h  1
   8  7.5069598e+03 1.32e+00 4.40e+01  -1.0 3.61e+00    -  2.64e-03 1.23e-03h  1
   9  8.6467377e+03 1.15e+00 4.32e+01  -1.0 1.05e+01    -  1.03e-03 1.30e-01h  1
iter    objective    inf_pr   inf_du lg(mu)  ||d||  lg(rg) alpha_du alpha_pr  ls
  10  8.6686739e+03 1.15e+00 2.24e+01  -1.0 5.14e+00    -  1.94e-02 2.66e-03h  1
  11  1.8111309e+04 8.88e-16 7.83e+01  -1.0 3.05e+00    -  9.96e-03 1.00e+00h  1
  12  1.8112065e+04 3.55e-15 1.00e-06  -1.0 7.01e-02    -  1.00e+00 1.00e+00f  1
  13  1.8092485e+04 3.55e-15 4.40e-02  -2.5 1.26e-01    -  9.71e-01 1.00e+00f  1
  14  1.8091530e+04 1.78e-15 2.83e-08  -2.5 1.98e-01    -  1.00e+00 1.00e+00f  1
  15  1.8090934e+04 1.78e-15 1.50e-09  -3.8 1.55e-02    -  1.00e+00 1.00e+00f  1
  16  1.8090897e+04 8.88e-16 1.84e-11  -5.7 1.76e-03    -  1.00e+00 1.00e+00f  1
  17  1.8090897e+04 8.88e-16 9.63e-05  -8.6 1.99e-05    -  1.00e+00 9.99e-01f  1
  18  1.8090897e+04 8.88e-16 1.38e-13  -8.6 1.28e-08    -  1.00e+00 1.00e+00f  1

Number of Iterations....: 18

                                   (scaled)                 (unscaled)
Objective...............:   4.5227241774767430e+02    1.8090896709906971e+04
Dual infeasibility......:   1.3812477405456462e-13    5.5249909621825848e-12
Constraint violation....:   8.8817841970012523e-16    8.8817841970012523e-16
Complementarity.........:   4.7994854897628299e-09    1.9197941959051319e-07
Overall NLP error.......:   4.7994854897628299e-09    1.9197941959051319e-07


Number of objective function evaluations             = 19
Number of objective gradient evaluations             = 19
Number of equality constraint evaluations            = 19
Number of inequality constraint evaluations          = 19
Number of equality constraint Jacobian evaluations   = 1
Number of inequality constraint Jacobian evaluations = 1
Number of Lagrangian Hessian evaluations             = 1
Total CPU secs in IPOPT (w/o function evaluations)   =      0.230
Total CPU secs in NLP function evaluations           =      0.229

EXIT: Optimal Solution Found.
Time to Solution........:1.133565902709961
